nNurses = 66;
nHours = 40;
minHours = 3;
maxHours = 12;
maxConsec = 7;
maxPresence = 29;
demand = [17, 20, 17, 13, 9, 13, 16, 19, 18, 17, 17, 14, 19, 17, 20, 15, 19, 16, 16, 12, 8, 8, 7, 6, 11, 13, 15, 20, 16, 18, 17, 16, 13, 10, 6, 11, 13, 10, 9, 6];
